
Gurobi 11.0.0 (mac64[arm], gurobi_cl) logging started Wed Feb 21 21:01:17 2024

Set parameter LogFile to value "gurobi.log"
Using license file /Users/mengziguo/anaconda3/envs/vm/lib/gurobi.lic
Restricted license - for non-production use only - expires 2025-11-24

Gurobi 11.0.0 (mac64[arm], gurobi_cl) logging started Wed Feb 21 21:02:21 2024

Set parameter Username
Set parameter LogFile to value "gurobi.log"
Using license file /Users/mengziguo/anaconda3/envs/vm/lib/gurobi.lic
Academic license - for non-commercial use only - expires 2025-02-20

Gurobi 11.0.0 (mac64[arm], gurobi_cl) logging started Wed Feb 21 21:02:23 2024

Set parameter Username
Set parameter LogFile to value "gurobi.log"
Using license file /Users/mengziguo/anaconda3/envs/vm/lib/gurobi.lic
Academic license - for non-commercial use only - expires 2025-02-20
